c generated by ere2max.py
c max 3 4 12 13 21 22 0
c ind 5 0
c ind 6 0
c ind 7 0
c ind 8 0
c ind 9 0
c ind 14 0
c ind 15 0
c ind 16 0
c ind 17 0
c ind 18 0
c ind 23 0
c ind 24 0
c ind 25 0
c ind 26 0
c ind 27 0
p cnf 29 57
-1 0
-2 0
29 0
3 4 0
-3 -4 0
-3 -1 10 0
-3 1 -5 10 0
-3 1 5 -10 0
-4 -1 -2 -8 10 0
-4 -1 -2 8 -10 0
-4 -1 2 -11 10 0
-4 -1 2 11 -9 10 0
-4 -1 2 11 9 -10 0
-4 1 -10 0
-3 -2 11 0
-3 2 -11 0
-4 -2 11 0
-4 2 -1 -6 11 0
-4 2 -1 6 -11 0
-4 2 1 -7 11 0
-4 2 1 7 -11 0
12 13 0
-12 -13 0
-12 -10 19 0
-12 10 -14 19 0
-12 10 14 -19 0
-13 -10 -11 -17 19 0
-13 -10 -11 17 -19 0
-13 -10 11 -20 19 0
-13 -10 11 20 -18 19 0
-13 -10 11 20 18 -19 0
-13 10 -19 0
-12 -11 20 0
-12 11 -20 0
-13 -11 20 0
-13 11 -10 -15 20 0
-13 11 -10 15 -20 0
-13 11 10 -16 20 0
-13 11 10 16 -20 0
21 22 0
-21 -22 0
-21 -19 28 0
-21 19 -23 28 0
-21 19 23 -28 0
-22 -19 -20 -26 28 0
-22 -19 -20 26 -28 0
-22 -19 20 -29 28 0
-22 -19 20 29 -27 28 0
-22 -19 20 29 27 -28 0
-22 19 -28 0
-21 -20 29 0
-21 20 -29 0
-22 -20 29 0
-22 20 -19 -24 29 0
-22 20 -19 24 -29 0
-22 20 19 -25 29 0
-22 20 19 25 -29 0
